
Gurobi 9.0.1 (linux64) logging started Thu Apr 30 07:38:17 2020

Gurobi Optimizer version 9.0.1 build v9.0.1rc0 (linux64)
Optimize a model with 3552 rows, 3890 columns and 43960 nonzeros
Model fingerprint: 0x6d9702ac
Variable types: 0 continuous, 3890 integer (3872 binary)
Coefficient statistics:
  Matrix range     [1e+00, 9e+00]
  Objective range  [7e+00, 1e+02]
  Bounds range     [1e+00, 1e+00]
  RHS range        [1e+00, 1e+00]

User MIP start produced solution with objective 872 (0.02s)
Loaded user MIP start with objective 872

Presolve removed 1363 rows and 999 columns (presolve time = 5s) ...
Presolve removed 1343 rows and 979 columns
Presolve time: 5.06s
Presolved: 2209 rows, 2911 columns, 30248 nonzeros
Variable types: 0 continuous, 2911 integer (2911 binary)

Root simplex log...

Iteration    Objective       Primal Inf.    Dual Inf.      Time
       0   -1.5500000e+02   1.460000e+02   0.000000e+00      5s
     990    5.2507537e+02   0.000000e+00   0.000000e+00      5s

Root relaxation: objective 5.250754e+02, 990 iterations, 0.07 seconds

    Nodes    |    Current Node    |     Objective Bounds      |     Work
 Expl Unexpl |  Obj  Depth IntInf | Incumbent    BestBd   Gap | It/Node Time

     0     0  525.07537    0  350  872.00000  525.07537  39.8%     -    5s
     0     0  544.79912    0  363  872.00000  544.79912  37.5%     -    5s
     0     0  546.66383    0  367  872.00000  546.66383  37.3%     -    5s
     0     0  546.94209    0  374  872.00000  546.94209  37.3%     -    5s
     0     0  547.00028    0  379  872.00000  547.00028  37.3%     -    5s
     0     0  557.83087    0  434  872.00000  557.83087  36.0%     -    6s
     0     0  558.26511    0  433  872.00000  558.26511  36.0%     -    6s
     0     0  570.39111    0  433  872.00000  570.39111  34.6%     -    6s
     0     0  570.60517    0  438  872.00000  570.60517  34.6%     -    6s
     0     0  570.61762    0  454  872.00000  570.61762  34.6%     -    7s
     0     0  576.71867    0  438  872.00000  576.71867  33.9%     -    7s
     0     0  577.86820    0  459  872.00000  577.86820  33.7%     -    7s
     0     0  577.95458    0  457  872.00000  577.95458  33.7%     -    7s
     0     0  577.99477    0  449  872.00000  577.99477  33.7%     -    7s
     0     0  577.99477    0  449  872.00000  577.99477  33.7%     -    7s
     0     0  579.24818    0  459  872.00000  579.24818  33.6%     -    7s
     0     0  579.44897    0  466  872.00000  579.44897  33.5%     -    8s
     0     0  579.47556    0  476  872.00000  579.47556  33.5%     -    8s
     0     0  579.47761    0  476  872.00000  579.47761  33.5%     -    8s
     0     0  582.24237    0  466  872.00000  582.24237  33.2%     -    8s
     0     0  582.25364    0  463  872.00000  582.25364  33.2%     -    8s
     0     0  584.71488    0  470  872.00000  584.71488  32.9%     -    8s
     0     0  584.90641    0  465  872.00000  584.90641  32.9%     -    8s
     0     0  584.92271    0  465  872.00000  584.92271  32.9%     -    8s
     0     0  585.32385    0  469  872.00000  585.32385  32.9%     -    8s
     0     0  585.33413    0  476  872.00000  585.33413  32.9%     -    8s
     0     0  585.79158    0  485  872.00000  585.79158  32.8%     -    9s
     0     0  585.82348    0  479  872.00000  585.82348  32.8%     -    9s
     0     0  585.82959    0  479  872.00000  585.82959  32.8%     -    9s
     0     0  586.36603    0  484  872.00000  586.36603  32.8%     -    9s
     0     0  586.37742    0  484  872.00000  586.37742  32.8%     -    9s
     0     0  587.07636    0  481  872.00000  587.07636  32.7%     -    9s
     0     0  587.09861    0  484  872.00000  587.09861  32.7%     -    9s
     0     0  587.31081    0  487  872.00000  587.31081  32.6%     -    9s
     0     0  587.31081    0  470  872.00000  587.31081  32.6%     -   10s
H    0     0                     832.0000000  587.59682  29.4%     -   14s
     3     3  596.92084    2  202  832.00000  590.54529  29.0%  1779   16s
   503   351  600.04723    2  172  832.00000  598.63411  28.0%  49.4   21s
H 1002   693                     781.0000000  601.87594  22.9%  36.7   24s
  1036   700  601.87594   15  237  781.00000  601.87594  22.9%  41.7   28s
  1060   715  620.03705   27  184  781.00000  601.87594  22.9%  44.8   30s
  1371   680  665.86312   41  124  781.00000  623.36312  20.2%  47.2   35s
H 1652   618                     762.0000000  636.97850  16.4%  43.0   37s
  1688   648  636.97850   15  218  762.00000  636.97850  16.4%  46.5   42s
  1780   665  680.51735   61  146  762.00000  644.79634  15.4%  49.3   45s
  2152   723  661.82223   40  157  762.00000  653.43254  14.2%  48.9   50s
H 2302   753                     761.0000000  654.33333  14.0%  46.0   52s
  2689   478  689.66667   20  151  761.00000  688.27381  9.56%  44.7   55s
  3157   437     cutoff   42       761.00000  702.25847  7.72%  44.2   60s
H 3521    71                     732.0000000  725.35714  0.91%  41.3   61s

Cutting planes:
  Gomory: 1
  MIR: 26
  StrongCG: 1
  Zero half: 40
  RLT: 12

Explored 3595 nodes (151177 simplex iterations) in 61.96 seconds
Thread count was 1 (of 40 available processors)

Solution count 6: 732 761 762 ... 872

Optimal solution found (tolerance 1.00e-04)
Best objective 7.320000000000e+02, best bound 7.320000000000e+02, gap 0.0000%

User-callback calls 8659, time in user-callback 0.03 sec
